! Solving for graph /home/truongxuanhieu/CPLEX-MIP-for-MinSpanLabeling/benchmarks/cabp/V-nos6.mtx.rnd
! Target value is set to 410
! Lower bound is set to 411
! Upper bound is set to 844
! Time limit is set to 1800
! Vertices mode is set to Has hole
Version identifier: 22.2.0.0 | 2026-05-04 | 5dff98e58
CPXPARAM_TimeLimit                               1800
Tried aggregator 2 times.
MIP Presolve eliminated 1293 rows and 6513 columns.
MIP Presolve modified 674 coefficients.
Aggregator did 7182 substitutions.
Reduced MIP has 9763 rows, 8474 columns, and 24742 nonzeros.
Reduced MIP has 1964 binaries, 3256 generals, 0 SOSs, and 5834 indicators.
Presolve time = 0.06 sec. (115.70 ticks)
Probing fixed 0 vars, tightened 7742 bounds.
Probing time = 0.03 sec. (18.92 ticks)
Tried aggregator 1 time.
Detecting symmetries...
MIP Presolve modified 3864 coefficients.
Reduced MIP has 9763 rows, 8474 columns, and 24742 nonzeros.
Reduced MIP has 1964 binaries, 6510 generals, 0 SOSs, and 5834 indicators.
Presolve time = 0.03 sec. (25.42 ticks)
Probing time = 0.03 sec. (3.78 ticks)
Clique table members: 3875.
MIP emphasis: balance optimality and feasibility.
MIP search method: dynamic search.
Parallel mode: deterministic, using up to 8 threads.
Root relaxation solution time = 0.50 sec. (101.65 ticks)

        Nodes                                         Cuts/
   Node  Left     Objective  IInf  Best Integer    Best Bound    ItCnt     Gap

      0     0      820.0000  1326                    820.0000        0         
      0     0      820.0000  1322                  Cuts: 2540     1373         
      0     0      820.0000   689                  Cuts: 2540     3281         
      0     0      820.0000   759                  Cuts: 2133     4429         
      0     0      820.0000   512                  Cuts: 1330     5475         
      0     0      820.0000  1644                  Cuts: 1065     6436         
Detecting symmetries...
*     0+    0                          844.0000      820.0000             2.84%
Detecting symmetries...
      0     2      820.0000   450      844.0000      820.0000     6436    2.84%
Elapsed time = 3.03 sec. (3168.52 ticks, tree = 0.02 MB, solutions = 1)
     73    57      821.0000   531      844.0000      820.0000    11511    2.84%
    291   264      821.0000   547      844.0000      820.0000    17512    2.84%
    552   468      821.0000   531      844.0000      820.0000    22859    2.84%
    767   691      821.0000   536      844.0000      820.0000    26713    2.84%
    990   903      820.0000   793      844.0000      820.0000    31876    2.84%
   1205  1001      821.0000   474      844.0000      820.0000    33704    2.84%
*  1441  1160      integral     0      821.0000      820.0000    37376    0.12%
   1491  1290      821.0000   724      821.0000      820.0000    39242    0.12%
   1833   132      820.0000   934      821.0000      820.0000    46945    0.12%
   2229   228      820.0000  1025      821.0000      820.0000    55973    0.12%
*  2625   202      integral     0      820.0000      820.0000    66557    0.00%

Cover cuts applied:  202
Implied bound cuts applied:  2165

Root node processing (before b&c):
  Real time             =    3.00 sec. (3149.83 ticks)
Parallel b&c, 8 threads:
  Real time             =    3.01 sec. (2725.38 ticks)
  Sync time (average)   =    0.83 sec.
  Wait time (average)   =    0.00 sec.
                          ------------
Total (root+branch&cut) =    6.01 sec. (5875.21 ticks)
! --------------------------------------------------------
! Solve = 1
! Status = Optimal
! Cplex status = Optimal
! Obj = 820
! BestBound = 820
! --------------------------------------------------------
! --------------------------------------------------------
! Best span = 820
! Labeling: 410 410 410 820 410 820 820 410 410 820 820 410 820 820 820 410 820 410 820 410 410 820 410 820 410 410 820 820 410 820 410 410 820 820 820 410 820 410 410 820 410 820 410 820 410 410 820 410 410 820 410 410 410 820 820 820 820 410 820 820 410 820 820 410 410 820 820 820 820 410 410 410 410 820 820 410 410 410 820 410 410 820 820 820 410 820 820 820 820 410 410 410 820 410 820 820 410 410 410 410 820 410 410 410 410 410 410 820 410 410 410 410 410 410 410 820 410 820 820 820 820 410 820 820 410 410 410 820 820 820 410 410 410 820 410 820 820 410 410 820 820 410 410 820 820 820 410 410 820 410 820 410 820 410 820 820 410 410 410 820 820 820 820 820 410 410 820 410 410 820 820 820 410 820 820 410 410 410 410 410 410 820 820 820 410 820 820 820 410 820 820 820 820 410 820 820 820 410 410 410 820 820 820 820 410 820 820 820 820 820 820 820 820 820 820 410 410 410 820 410 410 820 820 410 410 820 820 820 410 410 410 820 820 820 820 410 820 410 820 410 410 410 410 410 820 410 410 820 820 410 820 820 410 410 410 410 410 410 410 410 820 410 820 410 820 410 410 410 410 410 820 820 820 410 820 410 410 410 820 820 410 820 820 410 820 820 820 820 820 410 410 820 410 820 410 820 820 820 820 820 410 410 820 410 820 820 820 410 820 410 410 410 820 410 410 820 820 820 820 410 820 820 820 410 410 820 410 820 410 410 410 410 820 820 410 410 410 410 820 820 410 820 410 410 410 820 410 410 820 410 820 410 410 820 820 410 410 410 410 410 820 820 410 410 410 820 410 410 820 820 410 820 820 410 410 410 410 820 410 410 410 410 820 410 410 410 410 410 820 820 410 410 410 820 820 820 820 410 410 820 820 410 410 820 410 410 820 820 820 410 820 410 410 410 820 820 410 820 410 820 820 410 410 410 820 820 410 410 820 410 410 820 410 410 820 410 410 410 410 820 410 820 820 410 410 820 410 410 820 820 410 820 820 820 410 410 410 410 410 820 410 820 820 820 820 820 820 820 820 410 820 410 410 410 410 410 410 820 820 410 820 820 410 410 410 820 410 820 820 410 410 820 820 820 410 410 410 820 410 410 820 820 410 820 820 820 820 410 820 410 820 820 820 410 410 410 410 410 820 820 410 410 820 820 410 820 410 820 820 820 410 820 820 820 820 820 820 820 410 820 820 410 410 820 820 820 820 820 410 410 820 820 410 410 410 410 410 820 410 820 410 820 410 820 410 820 820 820 410 820 820 410 820 820 410 410 410 820 820 410 410 820 410 410 820 820 410 820 410 410 410 410 410 820 410 410 820 820 820 820 410 410 410 410 820 820 820 820 820 410 410 820 820 410 410 820 820 410 410 820 820 410 820 410 410 410 820 820 820 820 410 820 820 820 410 410 820 410 820 820 820 820 820 820 410 410 820 820 820 410 820 820 820 820 410 410 820 410 410 820 820 820 410 820 820 820 410 410 820 410 820 410 410 410 410 
! --------------------------------------------------------
